39485 39992 
38844 40311 
39198 40089 
38416 40601 
38425 40575 
38660 40563 
39542 39832 
39678 39752 
39250 40038 
38895 40266 
39680 39708 
39652 39820 
38669 40446 
37590 40781 
38006 40705 
37873 40753 
39148 40111 
37825 40769 
38926 40174 
38213 40608 
40030 39380 
39737 39548 
39709 39660 
